-447.0 9.0 8.0 2.0 9.0 5.0 7.0 1.0 6.0 1.0 8.0 5.0 5.0 7.0 4.0 5.0 4.0 4.0 5.0 6.0 7.0 7.0 1.0 5.0 6.0 10.0 3.0 8.0 8.0 8.0 10.0 1.0 5.0 9.0 10.0 7.0 9.0 7.0 5.0 6.0 8.0 5.0 3.0 8.0 0.0 3.0 9.0 6.0 10.0 9.0 6.0 0.0 8.0 6.0 1.0 3.0 6.0 8.0 6.0 5.0 3.0 1.0 6.0 6.0 5.0 5.0 1.0 10.0 1.0 3.0 9.0 2.0 1.0 3.0 2.0 8.0 1.0 0.0 5.0 8.0 7.0 7.0 5.0 4.0 1.0 
9.0 -419.0 1.0 3.0 4.0 7.0 4.0 1.0 8.0 7.0 6.0 1.0 1.0 9.0 10.0 4.0 5.0 1.0 7.0 2.0 2.0 1.0 9.0 7.0 7.0 4.0 8.0 2.0 4.0 9.0 6.0 3.0 10.0 9.0 1.0 8.0 7.0 9.0 2.0 6.0 3.0 4.0 8.0 6.0 1.0 6.0 5.0 10.0 6.0 7.0 8.0 7.0 4.0 5.0 10.0 1.0 2.0 4.0 2.0 10.0 9.0 1.0 1.0 1.0 8.0 2.0 7.0 4.0 9.0 5.0 4.0 10.0 4.0 8.0 6.0 2.0 9.0 2.0 1.0 6.0 7.0 0.0 0.0 0.0 0.0 
8.0 1.0 -401.0 5.0 7.0 8.0 0.0 8.0 0.0 3.0 5.0 7.0 3.0 7.0 6.0 1.0 2.0 1.0 2.0 4.0 10.0 9.0 1.0 1.0 0.0 4.0 4.0 8.0 6.0 9.0 1.0 3.0 1.0 3.0 3.0 2.0 3.0 2.0 9.0 8.0 0.0 0.0 0.0 6.0 4.0 8.0 7.0 5.0 10.0 9.0 4.0 9.0 7.0 3.0 9.0 8.0 10.0 2.0 1.0 2.0 5.0 1.0 7.0 6.0 8.0 0.0 6.0 8.0 3.0 3.0 10.0 4.0 0.0 10.0 5.0 6.0 8.0 8.0 8.0 0.0 0.0 9.0 10.0 2.0 5.0 
2.0 3.0 5.0 -407.0 10.0 5.0 2.0 10.0 3.0 6.0 10.0 1.0 10.0 1.0 10.0 4.0 3.0 5.0 9.0 5.0 7.0 2.0 9.0 2.0 2.0 8.0 6.0 3.0 4.0 5.0 9.0 2.0 0.0 1.0 1.0 4.0 10.0 0.0 7.0 5.0 10.0 3.0 7.0 4.0 4.0 5.0 4.0 3.0 10.0 5.0 6.0 5.0 6.0 5.0 4.0 1.0 2.0 2.0 4.0 7.0 2.0 0.0 8.0 9.0 0.0 10.0 0.0 8.0 7.0 9.0 10.0 3.0 9.0 0.0 9.0 3.0 5.0 4.0 5.0 5.0 1.0 2.0 1.0 1.0 8.0 
9.0 4.0 7.0 10.0 -407.0 2.0 2.0 1.0 7.0 9.0 1.0 0.0 10.0 4.0 1.0 4.0 4.0 7.0 10.0 4.0 8.0 2.0 2.0 10.0 9.0 8.0 4.0 1.0 3.0 1.0 2.0 2.0 9.0 8.0 8.0 3.0 7.0 2.0 1.0 1.0 1.0 3.0 6.0 3.0 10.0 6.0 7.0 8.0 0.0 5.0 2.0 3.0 8.0 0.0 5.0 10.0 8.0 8.0 1.0 2.0 7.0 3.0 4.0 9.0 6.0 1.0 5.0 6.0 2.0 6.0 6.0 8.0 1.0 0.0 3.0 4.0 8.0 5.0 7.0 6.0 7.0 6.0 5.0 6.0 3.0 
5.0 7.0 8.0 5.0 2.0 -395.0 1.0 3.0 1.0 7.0 2.0 10.0 0.0 9.0 2.0 1.0 4.0 7.0 3.0 2.0 9.0 8.0 4.0 5.0 10.0 7.0 10.0 3.0 9.0 3.0 10.0 6.0 4.0 6.0 4.0 8.0 10.0 4.0 6.0 1.0 1.0 3.0 9.0 6.0 1.0 7.0 2.0 3.0 0.0 0.0 8.0 5.0 1.0 9.0 8.0 7.0 0.0 6.0 4.0 9.0 1.0 6.0 3.0 10.0 7.0 5.0 2.0 6.0 1.0 1.0 1.0 8.0 10.0 6.0 2.0 10.0 5.0 2.0 0.0 0.0 7.0 5.0 2.0 0.0 0.0 
7.0 4.0 0.0 2.0 2.0 1.0 -402.0 6.0 10.0 3.0 8.0 1.0 3.0 7.0 6.0 8.0 7.0 9.0 2.0 6.0 2.0 1.0 0.0 10.0 4.0 4.0 7.0 6.0 4.0 2.0 9.0 8.0 9.0 5.0 0.0 6.0 4.0 3.0 1.0 1.0 3.0 2.0 3.0 6.0 7.0 6.0 10.0 5.0 6.0 7.0 1.0 0.0 5.0 7.0 5.0 9.0 10.0 0.0 2.0 6.0 2.0 8.0 0.0 10.0 9.0 9.0 10.0 5.0 7.0 3.0 0.0 3.0 6.0 2.0 2.0 8.0 4.0 1.0 5.0 4.0 10.0 8.0 6.0 0.0 2.0 
1.0 1.0 8.0 10.0 1.0 3.0 6.0 -371.0 3.0 1.0 4.0 1.0 4.0 10.0 1.0 10.0 9.0 1.0 6.0 6.0 3.0 2.0 7.0 1.0 7.0 7.0 0.0 10.0 5.0 6.0 3.0 3.0 7.0 6.0 3.0 2.0 7.0 4.0 0.0 1.0 5.0 3.0 4.0 3.0 6.0 4.0 1.0 3.0 8.0 4.0 10.0 0.0 6.0 1.0 7.0 5.0 6.0 1.0 5.0 5.0 3.0 1.0 6.0 5.0 3.0 9.0 9.0 4.0 9.0 10.0 3.0 2.0 1.0 4.0 2.0 9.0 1.0 4.0 3.0 6.0 5.0 4.0 0.0 7.0 4.0 
6.0 8.0 0.0 3.0 7.0 1.0 10.0 3.0 -441.0 4.0 3.0 6.0 8.0 6.0 7.0 10.0 0.0 6.0 7.0 3.0 7.0 8.0 2.0 6.0 0.0 10.0 10.0 6.0 7.0 4.0 7.0 9.0 10.0 4.0 2.0 9.0 6.0 0.0 9.0 5.0 3.0 5.0 4.0 8.0 1.0 7.0 8.0 8.0 4.0 7.0 0.0 7.0 0.0 2.0 8.0 4.0 9.0 3.0 1.0 3.0 5.0 9.0 1.0 1.0 9.0 5.0 5.0 0.0 9.0 7.0 3.0 4.0 5.0 5.0 10.0 5.0 4.0 9.0 2.0 8.0 8.0 8.0 7.0 1.0 0.0 
1.0 7.0 3.0 6.0 9.0 7.0 3.0 1.0 4.0 -443.0 9.0 5.0 1.0 10.0 9.0 6.0 6.0 9.0 2.0 6.0 0.0 1.0 1.0 10.0 7.0 9.0 0.0 8.0 0.0 9.0 2.0 8.0 0.0 9.0 2.0 2.0 1.0 2.0 1.0 7.0 6.0 9.0 9.0 2.0 0.0 3.0 10.0 10.0 1.0 3.0 8.0 7.0 6.0 10.0 10.0 2.0 8.0 0.0 9.0 3.0 8.0 2.0 10.0 4.0 0.0 5.0 7.0 8.0 10.0 7.0 2.0 4.0 10.0 3.0 5.0 2.0 9.0 9.0 4.0 8.0 10.0 2.0 9.0 6.0 0.0 
8.0 6.0 5.0 10.0 1.0 2.0 8.0 4.0 3.0 9.0 -408.0 6.0 9.0 1.0 8.0 2.0 4.0 3.0 0.0 10.0 0.0 10.0 3.0 0.0 9.0 7.0 0.0 7.0 10.0 1.0 5.0 1.0 1.0 3.0 8.0 1.0 8.0 10.0 4.0 7.0 6.0 5.0 2.0 6.0 10.0 6.0 3.0 6.0 7.0 6.0 8.0 8.0 8.0 7.0 7.0 4.0 6.0 2.0 0.0 7.0 3.0 10.0 0.0 4.0 1.0 4.0 1.0 9.0 10.0 1.0 0.0 4.0 0.0 2.0 5.0 0.0 5.0 4.0 3.0 9.0 2.0 5.0 10.0 6.0 2.0 
5.0 1.0 7.0 1.0 0.0 10.0 1.0 1.0 6.0 5.0 6.0 -460.0 9.0 8.0 10.0 4.0 3.0 2.0 5.0 5.0 5.0 10.0 10.0 7.0 7.0 7.0 0.0 8.0 9.0 4.0 10.0 1.0 8.0 9.0 6.0 3.0 7.0 6.0 9.0 3.0 5.0 9.0 10.0 9.0 0.0 7.0 1.0 10.0 4.0 8.0 3.0 6.0 8.0 4.0 9.0 6.0 0.0 8.0 7.0 2.0 7.0 0.0 5.0 1.0 2.0 8.0 4.0 3.0 8.0 7.0 6.0 10.0 3.0 7.0 6.0 6.0 6.0 3.0 6.0 10.0 0.0 10.0 5.0 1.0 2.0 
5.0 1.0 3.0 10.0 10.0 0.0 3.0 4.0 8.0 1.0 9.0 9.0 -403.0 7.0 5.0 3.0 2.0 10.0 0.0 1.0 2.0 0.0 0.0 9.0 5.0 4.0 10.0 0.0 8.0 6.0 10.0 2.0 5.0 5.0 6.0 9.0 1.0 6.0 10.0 9.0 0.0 1.0 2.0 2.0 10.0 9.0 4.0 2.0 2.0 5.0 2.0 5.0 4.0 1.0 2.0 9.0 9.0 3.0 10.0 5.0 6.0 2.0 0.0 4.0 10.0 10.0 4.0 3.0 5.0 5.0 7.0 3.0 3.0 7.0 1.0 8.0 1.0 3.0 3.0 4.0 8.0 4.0 9.0 5.0 3.0 
7.0 9.0 7.0 1.0 4.0 9.0 7.0 10.0 6.0 10.0 1.0 8.0 7.0 -408.0 1.0 1.0 7.0 8.0 6.0 4.0 10.0 3.0 4.0 3.0 0.0 4.0 4.0 6.0 0.0 0.0 2.0 4.0 4.0 10.0 1.0 6.0 1.0 5.0 10.0 8.0 10.0 7.0 3.0 7.0 3.0 7.0 3.0 3.0 1.0 3.0 7.0 1.0 1.0 0.0 9.0 2.0 0.0 1.0 8.0 6.0 10.0 4.0 3.0 10.0 0.0 6.0 5.0 7.0 0.0 3.0 4.0 6.0 10.0 3.0 8.0 6.0 3.0 0.0 2.0 3.0 9.0 8.0 5.0 6.0 7.0 
4.0 10.0 6.0 10.0 1.0 2.0 6.0 1.0 7.0 9.0 8.0 10.0 5.0 1.0 -455.0 6.0 9.0 3.0 10.0 0.0 8.0 10.0 6.0 1.0 4.0 10.0 8.0 6.0 10.0 7.0 6.0 7.0 6.0 8.0 2.0 4.0 1.0 2.0 10.0 9.0 0.0 3.0 6.0 2.0 0.0 4.0 3.0 8.0 4.0 1.0 3.0 9.0 2.0 7.0 2.0 7.0 8.0 6.0 1.0 7.0 0.0 6.0 10.0 4.0 4.0 9.0 4.0 6.0 8.0 3.0 3.0 9.0 5.0 0.0 4.0 4.0 8.0 10.0 2.0 5.0 7.0 9.0 1.0 8.0 10.0 
5.0 4.0 1.0 4.0 4.0 1.0 8.0 10.0 10.0 6.0 2.0 4.0 3.0 1.0 6.0 -393.0 4.0 4.0 3.0 5.0 4.0 0.0 7.0 8.0 1.0 2.0 3.0 0.0 4.0 5.0 10.0 5.0 7.0 2.0 6.0 1.0 3.0 3.0 1.0 4.0 0.0 1.0 4.0 10.0 3.0 7.0 2.0 8.0 6.0 7.0 0.0 0.0 3.0 10.0 2.0 3.0 0.0 1.0 4.0 9.0 4.0 7.0 8.0 8.0 6.0 5.0 9.0 5.0 6.0 8.0 7.0 7.0 2.0 9.0 8.0 2.0 3.0 9.0 6.0 10.0 1.0 1.0 7.0 6.0 8.0 
4.0 5.0 2.0 3.0 4.0 4.0 7.0 9.0 0.0 6.0 4.0 3.0 2.0 7.0 9.0 4.0 -409.0 3.0 4.0 3.0 3.0 10.0 10.0 6.0 0.0 7.0 9.0 9.0 6.0 0.0 1.0 6.0 8.0 10.0 8.0 1.0 10.0 2.0 5.0 2.0 2.0 5.0 1.0 8.0 9.0 6.0 5.0 5.0 3.0 1.0 10.0 7.0 4.0 4.0 4.0 2.0 5.0 6.0 8.0 10.0 2.0 7.0 7.0 0.0 10.0 5.0 4.0 8.0 4.0 2.0 1.0 5.0 1.0 10.0 6.0 6.0 0.0 7.0 3.0 0.0 10.0 1.0 1.0 4.0 4.0 
4.0 1.0 1.0 5.0 7.0 7.0 9.0 1.0 6.0 9.0 3.0 2.0 10.0 8.0 3.0 4.0 3.0 -453.0 7.0 1.0 9.0 5.0 4.0 10.0 1.0 0.0 9.0 9.0 3.0 10.0 7.0 5.0 9.0 6.0 9.0 3.0 6.0 0.0 10.0 1.0 7.0 9.0 10.0 5.0 2.0 3.0 10.0 4.0 1.0 8.0 1.0 0.0 4.0 10.0 8.0 4.0 4.0 3.0 8.0 8.0 8.0 1.0 1.0 6.0 10.0 10.0 1.0 7.0 10.0 9.0 5.0 7.0 0.0 10.0 7.0 0.0 7.0 1.0 6.0 3.0 5.0 0.0 10.0 3.0 10.0 
5.0 7.0 2.0 9.0 10.0 3.0 2.0 6.0 7.0 2.0 0.0 5.0 0.0 6.0 10.0 3.0 4.0 7.0 -395.0 8.0 3.0 3.0 2.0 7.0 6.0 1.0 4.0 1.0 7.0 9.0 2.0 2.0 7.0 10.0 1.0 3.0 6.0 3.0 9.0 9.0 8.0 10.0 5.0 1.0 0.0 0.0 5.0 4.0 0.0 2.0 5.0 2.0 4.0 6.0 2.0 10.0 7.0 4.0 8.0 6.0 8.0 7.0 0.0 6.0 10.0 4.0 7.0 6.0 5.0 10.0 4.0 3.0 6.0 2.0 10.0 2.0 7.0 2.0 4.0 4.0 0.0 0.0 2.0 0.0 6.0 
6.0 2.0 4.0 5.0 4.0 2.0 6.0 6.0 3.0 6.0 10.0 5.0 1.0 4.0 0.0 5.0 3.0 1.0 8.0 -369.0 0.0 8.0 2.0 9.0 0.0 0.0 4.0 10.0 6.0 1.0 8.0 10.0 0.0 9.0 0.0 1.0 5.0 5.0 3.0 10.0 7.0 4.0 4.0 3.0 10.0 2.0 4.0 3.0 2.0 10.0 2.0 0.0 3.0 3.0 1.0 0.0 8.0 3.0 1.0 3.0 1.0 7.0 8.0 0.0 8.0 2.0 10.0 8.0 0.0 9.0 0.0 10.0 1.0 9.0 4.0 6.0 8.0 8.0 0.0 4.0 3.0 7.0 5.0 6.0 0.0 
7.0 2.0 10.0 7.0 8.0 9.0 2.0 3.0 7.0 0.0 0.0 5.0 2.0 10.0 8.0 4.0 3.0 9.0 3.0 0.0 -420.0 0.0 0.0 4.0 2.0 8.0 3.0 1.0 3.0 9.0 0.0 10.0 3.0 0.0 7.0 0.0 1.0 4.0 4.0 10.0 6.0 9.0 8.0 8.0 4.0 3.0 6.0 5.0 6.0 4.0 7.0 0.0 2.0 6.0 4.0 0.0 9.0 2.0 10.0 3.0 5.0 9.0 2.0 9.0 5.0 10.0 0.0 7.0 5.0 4.0 6.0 10.0 4.0 8.0 1.0 10.0 7.0 7.0 1.0 9.0 7.0 8.0 9.0 0.0 7.0 
7.0 1.0 9.0 2.0 2.0 8.0 1.0 2.0 8.0 1.0 10.0 10.0 0.0 3.0 10.0 0.0 10.0 5.0 3.0 8.0 0.0 -406.0 0.0 10.0 7.0 1.0 0.0 5.0 9.0 3.0 4.0 4.0 0.0 0.0 2.0 6.0 2.0 2.0 8.0 7.0 2.0 5.0 8.0 2.0 10.0 10.0 10.0 7.0 3.0 3.0 0.0 9.0 2.0 6.0 2.0 6.0 9.0 8.0 7.0 3.0 5.0 0.0 9.0 2.0 6.0 4.0 3.0 6.0 2.0 6.0 0.0 1.0 0.0 5.0 8.0 10.0 3.0 10.0 3.0 10.0 10.0 8.0 3.0 3.0 7.0 
1.0 9.0 1.0 9.0 2.0 4.0 0.0 7.0 2.0 1.0 3.0 10.0 0.0 4.0 6.0 7.0 10.0 4.0 2.0 2.0 0.0 0.0 -349.0 1.0 3.0 8.0 0.0 6.0 5.0 3.0 8.0 2.0 9.0 2.0 3.0 6.0 1.0 0.0 0.0 7.0 5.0 5.0 5.0 2.0 8.0 4.0 9.0 5.0 5.0 7.0 3.0 1.0 1.0 10.0 5.0 9.0 6.0 7.0 0.0 0.0 3.0 2.0 0.0 8.0 3.0 4.0 7.0 6.0 2.0 7.0 3.0 0.0 5.0 2.0 4.0 6.0 1.0 2.0 5.0 10.0 0.0 8.0 0.0 8.0 8.0 
5.0 7.0 1.0 2.0 10.0 5.0 10.0 1.0 6.0 10.0 0.0 7.0 9.0 3.0 1.0 8.0 6.0 10.0 7.0 9.0 4.0 10.0 1.0 -444.0 9.0 3.0 6.0 10.0 0.0 8.0 2.0 8.0 7.0 7.0 4.0 3.0 9.0 7.0 0.0 10.0 2.0 7.0 5.0 3.0 4.0 6.0 0.0 9.0 0.0 8.0 1.0 10.0 6.0 2.0 3.0 0.0 6.0 3.0 1.0 3.0 10.0 6.0 7.0 10.0 7.0 2.0 10.0 9.0 0.0 9.0 1.0 3.0 10.0 1.0 1.0 5.0 8.0 1.0 8.0 10.0 4.0 1.0 4.0 9.0 4.0 
6.0 7.0 0.0 2.0 9.0 10.0 4.0 7.0 0.0 7.0 9.0 7.0 5.0 0.0 4.0 1.0 0.0 1.0 6.0 0.0 2.0 7.0 3.0 9.0 -390.0 1.0 3.0 10.0 8.0 2.0 5.0 3.0 9.0 5.0 5.0 0.0 0.0 5.0 3.0 10.0 2.0 8.0 0.0 0.0 4.0 5.0 5.0 5.0 2.0 6.0 4.0 4.0 7.0 9.0 5.0 8.0 3.0 7.0 0.0 2.0 2.0 8.0 7.0 5.0 3.0 9.0 1.0 3.0 5.0 4.0 2.0 9.0 5.0 10.0 5.0 8.0 2.0 0.0 8.0 3.0 5.0 8.0 5.0 3.0 9.0 
10.0 4.0 4.0 8.0 8.0 7.0 4.0 7.0 10.0 9.0 7.0 7.0 4.0 4.0 10.0 2.0 7.0 0.0 1.0 0.0 8.0 1.0 8.0 3.0 1.0 -437.0 7.0 2.0 2.0 5.0 6.0 1.0 7.0 9.0 1.0 5.0 7.0 1.0 3.0 3.0 3.0 6.0 8.0 2.0 0.0 9.0 7.0 9.0 1.0 7.0 10.0 7.0 4.0 9.0 1.0 8.0 1.0 1.0 9.0 6.0 7.0 8.0 1.0 7.0 4.0 0.0 10.0 0.0 6.0 9.0 8.0 8.0 10.0 3.0 4.0 8.0 8.0 10.0 1.0 1.0 9.0 6.0 4.0 2.0 2.0 
3.0 8.0 4.0 6.0 4.0 10.0 7.0 0.0 10.0 0.0 0.0 0.0 10.0 4.0 8.0 3.0 9.0 9.0 4.0 4.0 3.0 0.0 0.0 6.0 3.0 7.0 -429.0 10.0 4.0 6.0 4.0 10.0 8.0 9.0 5.0 4.0 0.0 0.0 2.0 2.0 8.0 5.0 4.0 7.0 4.0 4.0 0.0 10.0 6.0 2.0 2.0 8.0 6.0 3.0 0.0 8.0 7.0 10.0 9.0 3.0 10.0 4.0 7.0 7.0 4.0 3.0 8.0 7.0 10.0 6.0 4.0 8.0 5.0 10.0 7.0 6.0 4.0 4.0 6.0 0.0 1.0 4.0 1.0 8.0 3.0 
8.0 2.0 8.0 3.0 1.0 3.0 6.0 10.0 6.0 8.0 7.0 8.0 0.0 6.0 6.0 0.0 9.0 9.0 1.0 10.0 1.0 5.0 6.0 10.0 10.0 2.0 10.0 -391.0 1.0 0.0 9.0 5.0 4.0 6.0 6.0 3.0 6.0 0.0 4.0 3.0 2.0 4.0 0.0 2.0 6.0 5.0 4.0 5.0 9.0 0.0 2.0 1.0 1.0 3.0 2.0 10.0 6.0 5.0 1.0 10.0 9.0 1.0 2.0 5.0 1.0 5.0 10.0 8.0 9.0 5.0 0.0 5.0 6.0 8.0 5.0 2.0 6.0 1.0 0.0 3.0 1.0 3.0 2.0 5.0 9.0 
8.0 4.0 6.0 4.0 3.0 9.0 4.0 5.0 7.0 0.0 10.0 9.0 8.0 0.0 10.0 4.0 6.0 3.0 7.0 6.0 3.0 9.0 5.0 0.0 8.0 2.0 4.0 1.0 -439.0 5.0 8.0 2.0 5.0 8.0 10.0 6.0 1.0 6.0 0.0 6.0 10.0 4.0 9.0 3.0 5.0 2.0 0.0 10.0 7.0 3.0 9.0 10.0 10.0 2.0 2.0 2.0 6.0 7.0 8.0 7.0 10.0 5.0 10.0 2.0 6.0 1.0 5.0 2.0 9.0 6.0 1.0 0.0 5.0 8.0 3.0 0.0 10.0 4.0 1.0 4.0 10.0 3.0 8.0 8.0 0.0 
8.0 9.0 9.0 5.0 1.0 3.0 2.0 6.0 4.0 9.0 1.0 4.0 6.0 0.0 7.0 5.0 0.0 10.0 9.0 1.0 9.0 3.0 3.0 8.0 2.0 5.0 6.0 0.0 5.0 -414.0 1.0 8.0 9.0 10.0 1.0 1.0 6.0 7.0 4.0 3.0 2.0 6.0 10.0 4.0 5.0 6.0 6.0 3.0 9.0 8.0 5.0 2.0 8.0 2.0 5.0 4.0 5.0 5.0 2.0 1.0 3.0 6.0 9.0 4.0 7.0 7.0 7.0 3.0 4.0 4.0 1.0 10.0 6.0 3.0 9.0 2.0 1.0 3.0 5.0 3.0 7.0 7.0 1.0 5.0 9.0 
10.0 6.0 1.0 9.0 2.0 10.0 9.0 3.0 7.0 2.0 5.0 10.0 10.0 2.0 6.0 10.0 1.0 7.0 2.0 8.0 0.0 4.0 8.0 2.0 5.0 6.0 4.0 9.0 8.0 1.0 -366.0 0.0 5.0 6.0 0.0 1.0 0.0 2.0 3.0 8.0 0.0 3.0 5.0 1.0 0.0 10.0 5.0 9.0 2.0 4.0 2.0 4.0 8.0 4.0 5.0 6.0 0.0 0.0 4.0 0.0 3.0 6.0 3.0 10.0 1.0 3.0 3.0 3.0 2.0 5.0 1.0 9.0 0.0 9.0 0.0 3.0 5.0 2.0 5.0 5.0 9.0 9.0 1.0 3.0 2.0 
1.0 3.0 3.0 2.0 2.0 6.0 8.0 3.0 9.0 8.0 1.0 1.0 2.0 4.0 7.0 5.0 6.0 5.0 2.0 10.0 10.0 4.0 2.0 8.0 3.0 1.0 10.0 5.0 2.0 8.0 0.0 -366.0 7.0 6.0 7.0 2.0 9.0 3.0 0.0 5.0 0.0 2.0 4.0 6.0 0.0 5.0 9.0 8.0 7.0 6.0 5.0 8.0 1.0 0.0 0.0 5.0 3.0 1.0 4.0 3.0 0.0 5.0 2.0 9.0 10.0 2.0 6.0 1.0 3.0 2.0 3.0 0.0 3.0 2.0 6.0 8.0 10.0 6.0 3.0 9.0 1.0 6.0 3.0 6.0 3.0 
5.0 10.0 1.0 0.0 9.0 4.0 9.0 7.0 10.0 0.0 1.0 8.0 5.0 4.0 6.0 7.0 8.0 9.0 7.0 0.0 3.0 0.0 9.0 7.0 9.0 7.0 8.0 4.0 5.0 9.0 5.0 7.0 -446.0 4.0 0.0 0.0 5.0 1.0 7.0 5.0 1.0 6.0 7.0 8.0 3.0 0.0 1.0 10.0 4.0 2.0 5.0 1.0 9.0 10.0 9.0 5.0 9.0 6.0 0.0 2.0 9.0 4.0 7.0 5.0 6.0 10.0 10.0 1.0 0.0 9.0 9.0 6.0 0.0 0.0 7.0 5.0 8.0 4.0 7.0 5.0 4.0 9.0 2.0 10.0 6.0 
9.0 9.0 3.0 1.0 8.0 6.0 5.0 6.0 4.0 9.0 3.0 9.0 5.0 10.0 8.0 2.0 10.0 6.0 10.0 9.0 0.0 0.0 2.0 7.0 5.0 9.0 9.0 6.0 8.0 10.0 6.0 6.0 4.0 -437.0 3.0 10.0 9.0 10.0 8.0 9.0 3.0 10.0 6.0 0.0 6.0 10.0 5.0 3.0 5.0 2.0 1.0 3.0 0.0 4.0 2.0 0.0 1.0 6.0 1.0 3.0 3.0 0.0 5.0 1.0 8.0 7.0 7.0 4.0 1.0 3.0 2.0 5.0 2.0 10.0 8.0 0.0 4.0 2.0 5.0 5.0 1.0 7.0 6.0 8.0 9.0 
10.0 1.0 3.0 1.0 8.0 4.0 0.0 3.0 2.0 2.0 8.0 6.0 6.0 1.0 2.0 6.0 8.0 9.0 1.0 0.0 7.0 2.0 3.0 4.0 5.0 1.0 5.0 6.0 10.0 1.0 0.0 7.0 0.0 3.0 -386.0 6.0 1.0 7.0 5.0 0.0 9.0 8.0 7.0 10.0 2.0 9.0 9.0 8.0 0.0 4.0 9.0 2.0 8.0 3.0 4.0 0.0 8.0 3.0 2.0 6.0 7.0 5.0 9.0 10.0 6.0 9.0 1.0 7.0 0.0 8.0 7.0 5.0 2.0 4.0 1.0 8.0 9.0 0.0 3.0 1.0 2.0 7.0 0.0 8.0 2.0 
7.0 8.0 2.0 4.0 3.0 8.0 6.0 2.0 9.0 2.0 1.0 3.0 9.0 6.0 4.0 1.0 1.0 3.0 3.0 1.0 0.0 6.0 6.0 3.0 0.0 5.0 4.0 3.0 6.0 1.0 1.0 2.0 0.0 10.0 6.0 -352.0 1.0 3.0 0.0 10.0 7.0 2.0 0.0 9.0 5.0 10.0 3.0 5.0 2.0 9.0 6.0 3.0 2.0 9.0 3.0 0.0 6.0 2.0 10.0 4.0 9.0 10.0 0.0 4.0 9.0 10.0 0.0 6.0 8.0 0.0 6.0 0.0 1.0 3.0 0.0 4.0 5.0 6.0 0.0 7.0 2.0 7.0 2.0 3.0 3.0 
9.0 7.0 3.0 10.0 7.0 10.0 4.0 7.0 6.0 1.0 8.0 7.0 1.0 1.0 1.0 3.0 10.0 6.0 6.0 5.0 1.0 2.0 1.0 9.0 0.0 7.0 0.0 6.0 1.0 6.0 0.0 9.0 5.0 9.0 1.0 1.0 -434.0 9.0 10.0 5.0 6.0 6.0 3.0 5.0 5.0 0.0 7.0 0.0 1.0 10.0 8.0 9.0 8.0 6.0 1.0 9.0 9.0 5.0 3.0 10.0 5.0 10.0 7.0 4.0 7.0 0.0 2.0 1.0 7.0 1.0 9.0 0.0 5.0 9.0 3.0 7.0 9.0 4.0 3.0 6.0 10.0 10.0 1.0 8.0 1.0 
7.0 9.0 2.0 0.0 2.0 4.0 3.0 4.0 0.0 2.0 10.0 6.0 6.0 5.0 2.0 3.0 2.0 0.0 3.0 5.0 4.0 2.0 0.0 7.0 5.0 1.0 0.0 0.0 6.0 7.0 2.0 3.0 1.0 10.0 7.0 3.0 9.0 -360.0 10.0 4.0 5.0 2.0 6.0 10.0 4.0 8.0 8.0 7.0 6.0 6.0 6.0 7.0 4.0 9.0 8.0 0.0 1.0 4.0 8.0 3.0 8.0 7.0 2.0 8.0 0.0 1.0 0.0 3.0 1.0 3.0 2.0 3.0 1.0 6.0 6.0 6.0 6.0 8.0 2.0 0.0 4.0 10.0 5.0 0.0 0.0 
5.0 2.0 9.0 7.0 1.0 6.0 1.0 0.0 9.0 1.0 4.0 9.0 10.0 10.0 10.0 1.0 5.0 10.0 9.0 3.0 4.0 8.0 0.0 0.0 3.0 3.0 2.0 4.0 0.0 4.0 3.0 0.0 7.0 8.0 5.0 0.0 10.0 10.0 -461.0 6.0 9.0 7.0 5.0 4.0 5.0 6.0 8.0 7.0 7.0 6.0 8.0 8.0 3.0 2.0 10.0 10.0 8.0 2.0 8.0 7.0 2.0 8.0 2.0 9.0 3.0 7.0 7.0 7.0 8.0 9.0 10.0 3.0 2.0 10.0 10.0 2.0 0.0 6.0 1.0 8.0 5.0 1.0 8.0 5.0 9.0 
6.0 6.0 8.0 5.0 1.0 1.0 1.0 1.0 5.0 7.0 7.0 3.0 9.0 8.0 9.0 4.0 2.0 1.0 9.0 10.0 10.0 7.0 7.0 10.0 10.0 3.0 2.0 3.0 6.0 3.0 8.0 5.0 5.0 9.0 0.0 10.0 5.0 4.0 6.0 -405.0 3.0 3.0 0.0 9.0 7.0 2.0 5.0 1.0 4.0 0.0 6.0 2.0 9.0 3.0 6.0 4.0 5.0 0.0 6.0 1.0 5.0 1.0 2.0 4.0 6.0 0.0 6.0 9.0 3.0 6.0 4.0 0.0 9.0 4.0 10.0 1.0 1.0 10.0 2.0 8.0 0.0 4.0 9.0 7.0 2.0 
8.0 3.0 0.0 10.0 1.0 1.0 3.0 5.0 3.0 6.0 6.0 5.0 0.0 10.0 0.0 0.0 2.0 7.0 8.0 7.0 6.0 2.0 5.0 2.0 2.0 3.0 8.0 2.0 10.0 2.0 0.0 0.0 1.0 3.0 9.0 7.0 6.0 5.0 9.0 3.0 -397.0 8.0 8.0 1.0 10.0 0.0 4.0 7.0 2.0 7.0 9.0 5.0 7.0 3.0 6.0 9.0 7.0 5.0 2.0 5.0 1.0 5.0 0.0 9.0 0.0 3.0 8.0 9.0 1.0 0.0 6.0 2.0 9.0 7.0 6.0 10.0 2.0 8.0 2.0 10.0 9.0 3.0 1.0 10.0 1.0 
5.0 4.0 0.0 3.0 3.0 3.0 2.0 3.0 5.0 9.0 5.0 9.0 1.0 7.0 3.0 1.0 5.0 9.0 10.0 4.0 9.0 5.0 5.0 7.0 8.0 6.0 5.0 4.0 4.0 6.0 3.0 2.0 6.0 10.0 8.0 2.0 6.0 2.0 7.0 3.0 8.0 -438.0 10.0 5.0 5.0 2.0 5.0 8.0 9.0 2.0 7.0 3.0 0.0 10.0 0.0 10.0 4.0 10.0 5.0 5.0 6.0 7.0 8.0 7.0 8.0 8.0 2.0 7.0 7.0 1.0 9.0 1.0 2.0 3.0 4.0 7.0 6.0 9.0 0.0 5.0 7.0 3.0 9.0 2.0 3.0 
3.0 8.0 0.0 7.0 6.0 9.0 3.0 4.0 4.0 9.0 2.0 10.0 2.0 3.0 6.0 4.0 1.0 10.0 5.0 4.0 8.0 8.0 5.0 5.0 0.0 8.0 4.0 0.0 9.0 10.0 5.0 4.0 7.0 6.0 7.0 0.0 3.0 6.0 5.0 0.0 8.0 10.0 -409.0 1.0 5.0 9.0 7.0 3.0 8.0 0.0 7.0 9.0 1.0 4.0 6.0 7.0 0.0 3.0 10.0 5.0 1.0 0.0 4.0 1.0 9.0 2.0 4.0 9.0 0.0 7.0 4.0 3.0 5.0 3.0 1.0 0.0 10.0 0.0 0.0 9.0 2.0 10.0 10.0 8.0 4.0 
8.0 6.0 6.0 4.0 3.0 6.0 6.0 3.0 8.0 2.0 6.0 9.0 2.0 7.0 2.0 10.0 8.0 5.0 1.0 3.0 8.0 2.0 2.0 3.0 0.0 2.0 7.0 2.0 3.0 4.0 1.0 6.0 8.0 0.0 10.0 9.0 5.0 10.0 4.0 9.0 1.0 5.0 1.0 -430.0 0.0 10.0 4.0 4.0 2.0 7.0 2.0 5.0 7.0 9.0 2.0 2.0 2.0 7.0 7.0 6.0 1.0 5.0 10.0 3.0 4.0 2.0 5.0 8.0 8.0 6.0 7.0 8.0 8.0 7.0 10.0 7.0 8.0 0.0 2.0 5.0 2.0 9.0 6.0 9.0 7.0 
0.0 1.0 4.0 4.0 10.0 1.0 7.0 6.0 1.0 0.0 10.0 0.0 10.0 3.0 0.0 3.0 9.0 2.0 0.0 10.0 4.0 10.0 8.0 4.0 4.0 0.0 4.0 6.0 5.0 5.0 0.0 0.0 3.0 6.0 2.0 5.0 5.0 4.0 5.0 7.0 10.0 5.0 5.0 0.0 -354.0 3.0 3.0 7.0 10.0 1.0 0.0 1.0 0.0 7.0 4.0 4.0 7.0 7.0 10.0 4.0 9.0 1.0 6.0 6.0 2.0 0.0 10.0 6.0 1.0 1.0 3.0 9.0 5.0 2.0 5.0 3.0 2.0 6.0 1.0 1.0 5.0 3.0 5.0 4.0 2.0 
3.0 6.0 8.0 5.0 6.0 7.0 6.0 4.0 7.0 3.0 6.0 7.0 9.0 7.0 4.0 7.0 6.0 3.0 0.0 2.0 3.0 10.0 4.0 6.0 5.0 9.0 4.0 5.0 2.0 6.0 10.0 5.0 0.0 10.0 9.0 10.0 0.0 8.0 6.0 2.0 0.0 2.0 9.0 10.0 3.0 -449.0 5.0 0.0 5.0 2.0 8.0 3.0 4.0 6.0 8.0 2.0 3.0 7.0 7.0 6.0 6.0 6.0 10.0 7.0 2.0 4.0 5.0 2.0 4.0 10.0 10.0 5.0 9.0 1.0 7.0 9.0 1.0 9.0 2.0 7.0 6.0 6.0 3.0 0.0 8.0 
9.0 5.0 7.0 4.0 7.0 2.0 10.0 1.0 8.0 10.0 3.0 1.0 4.0 3.0 3.0 2.0 5.0 10.0 5.0 4.0 6.0 10.0 9.0 0.0 5.0 7.0 0.0 4.0 0.0 6.0 5.0 9.0 1.0 5.0 9.0 3.0 7.0 8.0 8.0 5.0 4.0 5.0 7.0 4.0 3.0 5.0 -434.0 8.0 1.0 7.0 10.0 9.0 2.0 10.0 9.0 9.0 2.0 0.0 1.0 2.0 7.0 8.0 0.0 1.0 9.0 0.0 6.0 7.0 4.0 7.0 8.0 10.0 0.0 0.0 6.0 9.0 6.0 6.0 9.0 0.0 5.0 3.0 2.0 7.0 6.0 
6.0 10.0 5.0 3.0 8.0 3.0 5.0 3.0 8.0 10.0 6.0 10.0 2.0 3.0 8.0 8.0 5.0 4.0 4.0 3.0 5.0 7.0 5.0 9.0 5.0 9.0 10.0 5.0 10.0 3.0 9.0 8.0 10.0 3.0 8.0 5.0 0.0 7.0 7.0 1.0 7.0 8.0 3.0 4.0 7.0 0.0 8.0 -460.0 10.0 6.0 9.0 8.0 5.0 3.0 2.0 8.0 6.0 0.0 6.0 5.0 8.0 8.0 4.0 1.0 2.0 6.0 5.0 1.0 0.0 4.0 3.0 7.0 5.0 9.0 8.0 2.0 9.0 4.0 1.0 6.0 1.0 5.0 3.0 3.0 10.0 
10.0 6.0 10.0 10.0 0.0 0.0 6.0 8.0 4.0 1.0 7.0 4.0 2.0 1.0 4.0 6.0 3.0 1.0 0.0 2.0 6.0 3.0 5.0 0.0 2.0 1.0 6.0 9.0 7.0 9.0 2.0 7.0 4.0 5.0 0.0 2.0 1.0 6.0 7.0 4.0 2.0 9.0 8.0 2.0 10.0 5.0 1.0 10.0 -396.0 10.0 2.0 1.0 8.0 1.0 4.0 10.0 6.0 8.0 7.0 6.0 6.0 7.0 2.0 2.0 1.0 6.0 8.0 5.0 10.0 9.0 1.0 0.0 8.0 4.0 9.0 1.0 6.0 0.0 0.0 4.0 4.0 5.0 10.0 5.0 2.0 
9.0 7.0 9.0 5.0 5.0 0.0 7.0 4.0 7.0 3.0 6.0 8.0 5.0 3.0 1.0 7.0 1.0 8.0 2.0 10.0 4.0 3.0 7.0 8.0 6.0 7.0 2.0 0.0 3.0 8.0 4.0 6.0 2.0 2.0 4.0 9.0 10.0 6.0 6.0 0.0 7.0 2.0 0.0 7.0 1.0 2.0 7.0 6.0 10.0 -415.0 7.0 3.0 7.0 8.0 3.0 8.0 9.0 10.0 0.0 1.0 10.0 2.0 7.0 8.0 9.0 6.0 1.0 2.0 5.0 10.0 10.0 4.0 0.0 4.0 4.0 2.0 3.0 0.0 2.0 7.0 6.0 0.0 1.0 9.0 1.0 
6.0 8.0 4.0 6.0 2.0 8.0 1.0 10.0 0.0 8.0 8.0 3.0 2.0 7.0 3.0 0.0 10.0 1.0 5.0 2.0 7.0 0.0 3.0 1.0 4.0 10.0 2.0 2.0 9.0 5.0 2.0 5.0 5.0 1.0 9.0 6.0 8.0 6.0 8.0 6.0 9.0 7.0 7.0 2.0 0.0 8.0 10.0 9.0 2.0 7.0 -452.0 7.0 8.0 10.0 10.0 6.0 2.0 2.0 7.0 6.0 10.0 5.0 7.0 6.0 1.0 8.0 0.0 0.0 6.0 7.0 10.0 8.0 9.0 4.0 9.0 1.0 1.0 8.0 9.0 0.0 8.0 8.0 1.0 7.0 7.0 
0.0 7.0 9.0 5.0 3.0 5.0 0.0 0.0 7.0 7.0 8.0 6.0 5.0 1.0 9.0 0.0 7.0 0.0 2.0 0.0 0.0 9.0 1.0 10.0 4.0 7.0 8.0 1.0 10.0 2.0 4.0 8.0 1.0 3.0 2.0 3.0 9.0 7.0 8.0 2.0 5.0 3.0 9.0 5.0 1.0 3.0 9.0 8.0 1.0 3.0 7.0 -408.0 4.0 6.0 5.0 2.0 6.0 9.0 6.0 3.0 5.0 1.0 6.0 6.0 1.0 6.0 0.0 4.0 8.0 6.0 7.0 9.0 0.0 6.0 5.0 6.0 1.0 7.0 1.0 10.0 7.0 10.0 7.0 10.0 4.0 
8.0 4.0 7.0 6.0 8.0 1.0 5.0 6.0 0.0 6.0 8.0 8.0 4.0 1.0 2.0 3.0 4.0 4.0 4.0 3.0 2.0 2.0 1.0 6.0 7.0 4.0 6.0 1.0 10.0 8.0 8.0 1.0 9.0 0.0 8.0 2.0 8.0 4.0 3.0 9.0 7.0 0.0 1.0 7.0 0.0 4.0 2.0 5.0 8.0 7.0 8.0 4.0 -375.0 4.0 3.0 1.0 1.0 2.0 2.0 9.0 10.0 5.0 0.0 2.0 5.0 9.0 5.0 6.0 10.0 1.0 7.0 1.0 2.0 1.0 8.0 7.0 4.0 3.0 2.0 2.0 3.0 6.0 5.0 2.0 3.0 
6.0 5.0 3.0 5.0 0.0 9.0 7.0 1.0 2.0 10.0 7.0 4.0 1.0 0.0 7.0 10.0 4.0 10.0 6.0 3.0 6.0 6.0 10.0 2.0 9.0 9.0 3.0 3.0 2.0 2.0 4.0 0.0 10.0 4.0 3.0 9.0 6.0 9.0 2.0 3.0 3.0 10.0 4.0 9.0 7.0 6.0 10.0 3.0 1.0 8.0 10.0 6.0 4.0 -435.0 8.0 10.0 9.0 0.0 5.0 3.0 2.0 7.0 0.0 5.0 10.0 8.0 0.0 9.0 7.0 7.0 2.0 10.0 6.0 4.0 7.0 0.0 0.0 3.0 0.0 6.0 3.0 6.0 7.0 1.0 7.0 
1.0 10.0 9.0 4.0 5.0 8.0 5.0 7.0 8.0 10.0 7.0 9.0 2.0 9.0 2.0 2.0 4.0 8.0 2.0 1.0 4.0 2.0 5.0 3.0 5.0 1.0 0.0 2.0 2.0 5.0 5.0 0.0 9.0 2.0 4.0 3.0 1.0 8.0 10.0 6.0 6.0 0.0 6.0 2.0 4.0 8.0 9.0 2.0 4.0 3.0 10.0 5.0 3.0 8.0 -390.0 2.0 1.0 3.0 10.0 4.0 0.0 2.0 6.0 2.0 8.0 10.0 7.0 10.0 9.0 10.0 7.0 1.0 1.0 4.0 1.0 1.0 1.0 0.0 2.0 5.0 1.0 7.0 8.0 1.0 6.0 
3.0 1.0 8.0 1.0 10.0 7.0 9.0 5.0 4.0 2.0 4.0 6.0 9.0 2.0 7.0 3.0 2.0 4.0 10.0 0.0 0.0 6.0 9.0 0.0 8.0 8.0 8.0 10.0 2.0 4.0 6.0 5.0 5.0 0.0 0.0 0.0 9.0 0.0 10.0 4.0 9.0 10.0 7.0 2.0 4.0 2.0 9.0 8.0 10.0 8.0 6.0 2.0 1.0 10.0 2.0 -386.0 0.0 5.0 3.0 6.0 1.0 8.0 0.0 5.0 8.0 6.0 4.0 0.0 2.0 4.0 4.0 6.0 6.0 2.0 0.0 5.0 1.0 6.0 1.0 8.0 3.0 0.0 3.0 3.0 5.0 
6.0 2.0 10.0 2.0 8.0 0.0 10.0 6.0 9.0 8.0 6.0 0.0 9.0 0.0 8.0 0.0 5.0 4.0 7.0 8.0 9.0 9.0 6.0 6.0 3.0 1.0 7.0 6.0 6.0 5.0 0.0 3.0 9.0 1.0 8.0 6.0 9.0 1.0 8.0 5.0 7.0 4.0 0.0 2.0 7.0 3.0 2.0 6.0 6.0 9.0 2.0 6.0 1.0 9.0 1.0 0.0 -408.0 9.0 7.0 3.0 4.0 4.0 1.0 3.0 9.0 8.0 5.0 1.0 0.0 3.0 3.0 3.0 0.0 4.0 7.0 6.0 10.0 8.0 2.0 7.0 10.0 1.0 5.0 3.0 1.0 
8.0 4.0 2.0 2.0 8.0 6.0 0.0 1.0 3.0 0.0 2.0 8.0 3.0 1.0 6.0 1.0 6.0 3.0 4.0 3.0 2.0 8.0 7.0 3.0 7.0 1.0 10.0 5.0 7.0 5.0 0.0 1.0 6.0 6.0 3.0 2.0 5.0 4.0 2.0 0.0 5.0 10.0 3.0 7.0 7.0 7.0 0.0 0.0 8.0 10.0 2.0 9.0 2.0 0.0 3.0 5.0 9.0 -378.0 10.0 9.0 7.0 0.0 6.0 9.0 8.0 8.0 2.0 3.0 4.0 1.0 0.0 8.0 10.0 6.0 1.0 2.0 0.0 2.0 3.0 4.0 10.0 6.0 9.0 2.0 6.0 
6.0 2.0 1.0 4.0 1.0 4.0 2.0 5.0 1.0 9.0 0.0 7.0 10.0 8.0 1.0 4.0 8.0 8.0 8.0 1.0 10.0 7.0 0.0 1.0 0.0 9.0 9.0 1.0 8.0 2.0 4.0 4.0 0.0 1.0 2.0 10.0 3.0 8.0 8.0 6.0 2.0 5.0 10.0 7.0 10.0 7.0 1.0 6.0 7.0 0.0 7.0 6.0 2.0 5.0 10.0 3.0 7.0 10.0 -415.0 8.0 10.0 7.0 7.0 7.0 10.0 9.0 9.0 0.0 3.0 0.0 1.0 2.0 7.0 7.0 1.0 4.0 5.0 5.0 3.0 3.0 9.0 6.0 1.0 1.0 2.0 
5.0 10.0 2.0 7.0 2.0 9.0 6.0 5.0 3.0 3.0 7.0 2.0 5.0 6.0 7.0 9.0 10.0 8.0 6.0 3.0 3.0 3.0 0.0 3.0 2.0 6.0 3.0 10.0 7.0 1.0 0.0 3.0 2.0 3.0 6.0 4.0 10.0 3.0 7.0 1.0 5.0 5.0 5.0 6.0 4.0 6.0 2.0 5.0 6.0 1.0 6.0 3.0 9.0 3.0 4.0 6.0 3.0 9.0 8.0 -394.0 0.0 5.0 9.0 9.0 7.0 1.0 8.0 1.0 0.0 1.0 1.0 4.0 8.0 0.0 3.0 6.0 4.0 9.0 3.0 9.0 5.0 2.0 2.0 6.0 3.0 
3.0 9.0 5.0 2.0 7.0 1.0 2.0 3.0 5.0 8.0 3.0 7.0 6.0 10.0 0.0 4.0 2.0 8.0 8.0 1.0 5.0 5.0 3.0 10.0 2.0 7.0 10.0 9.0 10.0 3.0 3.0 0.0 9.0 3.0 7.0 9.0 5.0 8.0 2.0 5.0 1.0 6.0 1.0 1.0 9.0 6.0 7.0 8.0 6.0 10.0 10.0 5.0 10.0 2.0 0.0 1.0 4.0 7.0 10.0 0.0 -416.0 5.0 3.0 0.0 7.0 5.0 2.0 4.0 10.0 5.0 2.0 1.0 4.0 3.0 4.0 1.0 0.0 6.0 5.0 7.0 3.0 5.0 9.0 4.0 8.0 
1.0 1.0 1.0 0.0 3.0 6.0 8.0 1.0 9.0 2.0 10.0 0.0 2.0 4.0 6.0 7.0 7.0 1.0 7.0 7.0 9.0 0.0 2.0 6.0 8.0 8.0 4.0 1.0 5.0 6.0 6.0 5.0 4.0 0.0 5.0 10.0 10.0 7.0 8.0 1.0 5.0 7.0 0.0 5.0 1.0 6.0 8.0 8.0 7.0 2.0 5.0 1.0 5.0 7.0 2.0 8.0 4.0 0.0 7.0 5.0 5.0 -426.0 9.0 1.0 3.0 10.0 8.0 10.0 8.0 1.0 7.0 1.0 2.0 8.0 3.0 9.0 7.0 9.0 7.0 8.0 5.0 10.0 7.0 1.0 6.0 
6.0 1.0 7.0 8.0 4.0 3.0 0.0 6.0 1.0 10.0 0.0 5.0 0.0 3.0 10.0 8.0 7.0 1.0 0.0 8.0 2.0 9.0 0.0 7.0 7.0 1.0 7.0 2.0 10.0 9.0 3.0 2.0 7.0 5.0 9.0 0.0 7.0 2.0 2.0 2.0 0.0 8.0 4.0 10.0 6.0 10.0 0.0 4.0 2.0 7.0 7.0 6.0 0.0 0.0 6.0 0.0 1.0 6.0 7.0 9.0 3.0 9.0 -383.0 9.0 10.0 1.0 5.0 1.0 0.0 9.0 5.0 6.0 6.0 3.0 1.0 6.0 5.0 1.0 6.0 0.0 1.0 3.0 9.0 4.0 6.0 
6.0 1.0 6.0 9.0 9.0 10.0 10.0 5.0 1.0 4.0 4.0 1.0 4.0 10.0 4.0 8.0 0.0 6.0 6.0 0.0 9.0 2.0 8.0 10.0 5.0 7.0 7.0 5.0 2.0 4.0 10.0 9.0 5.0 1.0 10.0 4.0 4.0 8.0 9.0 4.0 9.0 7.0 1.0 3.0 6.0 7.0 1.0 1.0 2.0 8.0 6.0 6.0 2.0 5.0 2.0 5.0 3.0 9.0 7.0 9.0 0.0 1.0 9.0 -427.0 5.0 6.0 6.0 6.0 2.0 2.0 9.0 4.0 4.0 5.0 9.0 0.0 10.0 7.0 0.0 3.0 1.0 0.0 1.0 7.0 4.0 
5.0 8.0 8.0 0.0 6.0 7.0 9.0 3.0 9.0 0.0 1.0 2.0 10.0 0.0 4.0 6.0 10.0 10.0 10.0 8.0 5.0 6.0 3.0 7.0 3.0 4.0 4.0 1.0 6.0 7.0 1.0 10.0 6.0 8.0 6.0 9.0 7.0 0.0 3.0 6.0 0.0 8.0 9.0 4.0 2.0 2.0 9.0 2.0 1.0 9.0 1.0 1.0 5.0 10.0 8.0 8.0 9.0 8.0 10.0 7.0 7.0 3.0 10.0 5.0 -486.0 8.0 0.0 10.0 7.0 2.0 6.0 10.0 5.0 7.0 10.0 10.0 10.0 0.0 6.0 6.0 9.0 7.0 7.0 4.0 6.0 
5.0 2.0 0.0 10.0 1.0 5.0 9.0 9.0 5.0 5.0 4.0 8.0 10.0 6.0 9.0 5.0 5.0 10.0 4.0 2.0 10.0 4.0 4.0 2.0 9.0 0.0 3.0 5.0 1.0 7.0 3.0 2.0 10.0 7.0 9.0 10.0 0.0 1.0 7.0 0.0 3.0 8.0 2.0 2.0 0.0 4.0 0.0 6.0 6.0 6.0 8.0 6.0 9.0 8.0 10.0 6.0 8.0 8.0 9.0 1.0 5.0 10.0 1.0 6.0 8.0 -441.0 7.0 0.0 7.0 9.0 4.0 7.0 5.0 5.0 9.0 8.0 4.0 0.0 5.0 6.0 0.0 3.0 2.0 10.0 2.0 
1.0 7.0 6.0 0.0 5.0 2.0 10.0 9.0 5.0 7.0 1.0 4.0 4.0 5.0 4.0 9.0 4.0 1.0 7.0 10.0 0.0 3.0 7.0 10.0 1.0 10.0 8.0 10.0 5.0 7.0 3.0 6.0 10.0 7.0 1.0 0.0 2.0 0.0 7.0 6.0 8.0 2.0 4.0 5.0 10.0 5.0 6.0 5.0 8.0 1.0 0.0 0.0 5.0 0.0 7.0 4.0 5.0 2.0 9.0 8.0 2.0 8.0 5.0 6.0 0.0 7.0 -412.0 0.0 3.0 1.0 10.0 8.0 9.0 5.0 3.0 0.0 0.0 3.0 10.0 1.0 9.0 0.0 5.0 9.0 10.0 
10.0 4.0 8.0 8.0 6.0 6.0 5.0 4.0 0.0 8.0 9.0 3.0 3.0 7.0 6.0 5.0 8.0 7.0 6.0 8.0 7.0 6.0 6.0 9.0 3.0 0.0 7.0 8.0 2.0 3.0 3.0 1.0 1.0 4.0 7.0 6.0 1.0 3.0 7.0 9.0 9.0 7.0 9.0 8.0 6.0 2.0 7.0 1.0 5.0 2.0 0.0 4.0 6.0 9.0 10.0 0.0 1.0 3.0 0.0 1.0 4.0 10.0 1.0 6.0 10.0 0.0 0.0 -420.0 7.0 3.0 3.0 0.0 10.0 5.0 9.0 10.0 2.0 6.0 4.0 8.0 7.0 4.0 7.0 0.0 0.0 
1.0 9.0 3.0 7.0 2.0 1.0 7.0 9.0 9.0 10.0 10.0 8.0 5.0 0.0 8.0 6.0 4.0 10.0 5.0 0.0 5.0 2.0 2.0 0.0 5.0 6.0 10.0 9.0 9.0 4.0 2.0 3.0 0.0 1.0 0.0 8.0 7.0 1.0 8.0 3.0 1.0 7.0 0.0 8.0 1.0 4.0 4.0 0.0 10.0 5.0 6.0 8.0 10.0 7.0 9.0 2.0 0.0 4.0 3.0 0.0 10.0 8.0 0.0 2.0 7.0 7.0 3.0 7.0 -418.0 9.0 8.0 5.0 5.0 9.0 1.0 9.0 8.0 3.0 2.0 6.0 4.0 2.0 10.0 0.0 5.0 
3.0 5.0 3.0 9.0 6.0 1.0 3.0 10.0 7.0 7.0 1.0 7.0 5.0 3.0 3.0 8.0 2.0 9.0 10.0 9.0 4.0 6.0 7.0 9.0 4.0 9.0 6.0 5.0 6.0 4.0 5.0 2.0 9.0 3.0 8.0 0.0 1.0 3.0 9.0 6.0 0.0 1.0 7.0 6.0 1.0 10.0 7.0 4.0 9.0 10.0 7.0 6.0 1.0 7.0 10.0 4.0 3.0 1.0 0.0 1.0 5.0 1.0 9.0 2.0 2.0 9.0 1.0 3.0 9.0 -419.0 6.0 7.0 2.0 1.0 4.0 1.0 0.0 10.0 10.0 1.0 3.0 4.0 6.0 6.0 5.0 
9.0 4.0 10.0 10.0 6.0 1.0 0.0 3.0 3.0 2.0 0.0 6.0 7.0 4.0 3.0 7.0 1.0 5.0 4.0 0.0 6.0 0.0 3.0 1.0 2.0 8.0 4.0 0.0 1.0 1.0 1.0 3.0 9.0 2.0 7.0 6.0 9.0 2.0 10.0 4.0 6.0 9.0 4.0 7.0 3.0 10.0 8.0 3.0 1.0 10.0 10.0 7.0 7.0 2.0 7.0 4.0 3.0 0.0 1.0 1.0 2.0 7.0 5.0 9.0 6.0 4.0 10.0 3.0 8.0 6.0 -419.0 2.0 4.0 5.0 10.0 9.0 4.0 7.0 10.0 4.0 9.0 0.0 8.0 10.0 10.0 
2.0 10.0 4.0 3.0 8.0 8.0 3.0 2.0 4.0 4.0 4.0 10.0 3.0 6.0 9.0 7.0 5.0 7.0 3.0 10.0 10.0 1.0 0.0 3.0 9.0 8.0 8.0 5.0 0.0 10.0 9.0 0.0 6.0 5.0 5.0 0.0 0.0 3.0 3.0 0.0 2.0 1.0 3.0 8.0 9.0 5.0 10.0 7.0 0.0 4.0 8.0 9.0 1.0 10.0 1.0 6.0 3.0 8.0 2.0 4.0 1.0 1.0 6.0 4.0 10.0 7.0 8.0 0.0 5.0 7.0 2.0 -408.0 8.0 1.0 6.0 8.0 3.0 3.0 0.0 10.0 7.0 9.0 2.0 0.0 2.0 
1.0 4.0 0.0 9.0 1.0 10.0 6.0 1.0 5.0 10.0 0.0 3.0 3.0 10.0 5.0 2.0 1.0 0.0 6.0 1.0 4.0 0.0 5.0 10.0 5.0 10.0 5.0 6.0 5.0 6.0 0.0 3.0 0.0 2.0 2.0 1.0 5.0 1.0 2.0 9.0 9.0 2.0 5.0 8.0 5.0 9.0 0.0 5.0 8.0 0.0 9.0 0.0 2.0 6.0 1.0 6.0 0.0 10.0 7.0 8.0 4.0 2.0 6.0 4.0 5.0 5.0 9.0 10.0 5.0 2.0 4.0 8.0 -368.0 1.0 0.0 0.0 8.0 5.0 9.0 1.0 3.0 2.0 1.0 8.0 7.0 
3.0 8.0 10.0 0.0 0.0 6.0 2.0 4.0 5.0 3.0 2.0 7.0 7.0 3.0 0.0 9.0 10.0 10.0 2.0 9.0 8.0 5.0 2.0 1.0 10.0 3.0 10.0 8.0 8.0 3.0 9.0 2.0 0.0 10.0 4.0 3.0 9.0 6.0 10.0 4.0 7.0 3.0 3.0 7.0 2.0 1.0 0.0 9.0 4.0 4.0 4.0 6.0 1.0 4.0 4.0 2.0 4.0 6.0 7.0 0.0 3.0 8.0 3.0 5.0 7.0 5.0 5.0 5.0 9.0 1.0 5.0 1.0 1.0 -400.0 3.0 10.0 1.0 1.0 3.0 10.0 5.0 3.0 10.0 3.0 0.0 
2.0 6.0 5.0 9.0 3.0 2.0 2.0 2.0 10.0 5.0 5.0 6.0 1.0 8.0 4.0 8.0 6.0 7.0 10.0 4.0 1.0 8.0 4.0 1.0 5.0 4.0 7.0 5.0 3.0 9.0 0.0 6.0 7.0 8.0 1.0 0.0 3.0 6.0 10.0 10.0 6.0 4.0 1.0 10.0 5.0 7.0 6.0 8.0 9.0 4.0 9.0 5.0 8.0 7.0 1.0 0.0 7.0 1.0 1.0 3.0 4.0 3.0 1.0 9.0 10.0 9.0 3.0 9.0 1.0 4.0 10.0 6.0 0.0 3.0 -435.0 2.0 8.0 2.0 10.0 4.0 9.0 6.0 0.0 7.0 10.0 
8.0 2.0 6.0 3.0 4.0 10.0 8.0 9.0 5.0 2.0 0.0 6.0 8.0 6.0 4.0 2.0 6.0 0.0 2.0 6.0 10.0 10.0 6.0 5.0 8.0 8.0 6.0 2.0 0.0 2.0 3.0 8.0 5.0 0.0 8.0 4.0 7.0 6.0 2.0 1.0 10.0 7.0 0.0 7.0 3.0 9.0 9.0 2.0 1.0 2.0 1.0 6.0 7.0 0.0 1.0 5.0 6.0 2.0 4.0 6.0 1.0 9.0 6.0 0.0 10.0 8.0 0.0 10.0 9.0 1.0 9.0 8.0 0.0 10.0 2.0 -405.0 0.0 1.0 0.0 9.0 0.0 4.0 9.0 6.0 7.0 
1.0 9.0 8.0 5.0 8.0 5.0 4.0 1.0 4.0 9.0 5.0 6.0 1.0 3.0 8.0 3.0 0.0 7.0 7.0 8.0 7.0 3.0 1.0 8.0 2.0 8.0 4.0 6.0 10.0 1.0 5.0 10.0 8.0 4.0 9.0 5.0 9.0 6.0 0.0 1.0 2.0 6.0 10.0 8.0 2.0 1.0 6.0 9.0 6.0 3.0 1.0 1.0 4.0 0.0 1.0 1.0 10.0 0.0 5.0 4.0 0.0 7.0 5.0 10.0 10.0 4.0 0.0 2.0 8.0 0.0 4.0 3.0 8.0 1.0 8.0 0.0 -385.0 3.0 1.0 7.0 1.0 0.0 5.0 8.0 1.0 
0.0 2.0 8.0 4.0 5.0 2.0 1.0 4.0 9.0 9.0 4.0 3.0 3.0 0.0 10.0 9.0 7.0 1.0 2.0 8.0 7.0 10.0 2.0 1.0 0.0 10.0 4.0 1.0 4.0 3.0 2.0 6.0 4.0 2.0 0.0 6.0 4.0 8.0 6.0 10.0 8.0 9.0 0.0 0.0 6.0 9.0 6.0 4.0 0.0 0.0 8.0 7.0 3.0 3.0 0.0 6.0 8.0 2.0 5.0 9.0 6.0 9.0 1.0 7.0 0.0 0.0 3.0 6.0 3.0 10.0 7.0 3.0 5.0 1.0 2.0 1.0 3.0 -378.0 0.0 8.0 4.0 5.0 5.0 7.0 8.0 
5.0 1.0 8.0 5.0 7.0 0.0 5.0 3.0 2.0 4.0 3.0 6.0 3.0 2.0 2.0 6.0 3.0 6.0 4.0 0.0 1.0 3.0 5.0 8.0 8.0 1.0 6.0 0.0 1.0 5.0 5.0 3.0 7.0 5.0 3.0 0.0 3.0 2.0 1.0 2.0 2.0 0.0 0.0 2.0 1.0 2.0 9.0 1.0 0.0 2.0 9.0 1.0 2.0 0.0 2.0 1.0 2.0 3.0 3.0 3.0 5.0 7.0 6.0 0.0 6.0 5.0 10.0 4.0 2.0 10.0 10.0 0.0 9.0 3.0 10.0 0.0 1.0 0.0 -305.0 7.0 5.0 4.0 7.0 2.0 3.0 
8.0 6.0 0.0 5.0 6.0 0.0 4.0 6.0 8.0 8.0 9.0 10.0 4.0 3.0 5.0 10.0 0.0 3.0 4.0 4.0 9.0 10.0 10.0 10.0 3.0 1.0 0.0 3.0 4.0 3.0 5.0 9.0 5.0 5.0 1.0 7.0 6.0 0.0 8.0 8.0 10.0 5.0 9.0 5.0 1.0 7.0 0.0 6.0 4.0 7.0 0.0 10.0 2.0 6.0 5.0 8.0 7.0 4.0 3.0 9.0 7.0 8.0 0.0 3.0 6.0 6.0 1.0 8.0 6.0 1.0 4.0 10.0 1.0 10.0 4.0 9.0 7.0 8.0 7.0 -456.0 4.0 10.0 6.0 3.0 9.0 
7.0 7.0 0.0 1.0 7.0 7.0 10.0 5.0 8.0 10.0 2.0 0.0 8.0 9.0 7.0 1.0 10.0 5.0 0.0 3.0 7.0 10.0 0.0 4.0 5.0 9.0 1.0 1.0 10.0 7.0 9.0 1.0 4.0 1.0 2.0 2.0 10.0 4.0 5.0 0.0 9.0 7.0 2.0 2.0 5.0 6.0 5.0 1.0 4.0 6.0 8.0 7.0 3.0 3.0 1.0 3.0 10.0 10.0 9.0 5.0 3.0 5.0 1.0 1.0 9.0 0.0 9.0 7.0 4.0 3.0 9.0 7.0 3.0 5.0 9.0 0.0 1.0 4.0 5.0 4.0 -418.0 9.0 0.0 8.0 7.0 
7.0 0.0 9.0 2.0 6.0 5.0 8.0 4.0 8.0 2.0 5.0 10.0 4.0 8.0 9.0 1.0 1.0 0.0 0.0 7.0 8.0 8.0 8.0 1.0 8.0 6.0 4.0 3.0 3.0 7.0 9.0 6.0 9.0 7.0 7.0 7.0 10.0 10.0 1.0 4.0 3.0 3.0 10.0 9.0 3.0 6.0 3.0 5.0 5.0 0.0 8.0 10.0 6.0 6.0 7.0 0.0 1.0 6.0 6.0 2.0 5.0 10.0 3.0 0.0 7.0 3.0 0.0 4.0 2.0 4.0 0.0 9.0 2.0 3.0 6.0 4.0 0.0 5.0 4.0 10.0 9.0 -427.0 5.0 9.0 2.0 
5.0 0.0 10.0 1.0 5.0 2.0 6.0 0.0 7.0 9.0 10.0 5.0 9.0 5.0 1.0 7.0 1.0 10.0 2.0 5.0 9.0 3.0 0.0 4.0 5.0 4.0 1.0 2.0 8.0 1.0 1.0 3.0 2.0 6.0 0.0 2.0 1.0 5.0 8.0 9.0 1.0 9.0 10.0 6.0 5.0 3.0 2.0 3.0 10.0 1.0 1.0 7.0 5.0 7.0 8.0 3.0 5.0 9.0 1.0 2.0 9.0 7.0 9.0 1.0 7.0 2.0 5.0 7.0 10.0 6.0 8.0 2.0 1.0 10.0 0.0 9.0 5.0 5.0 7.0 6.0 0.0 5.0 -410.0 10.0 7.0 
4.0 0.0 2.0 1.0 6.0 0.0 0.0 7.0 1.0 6.0 6.0 1.0 5.0 6.0 8.0 6.0 4.0 3.0 0.0 6.0 0.0 3.0 8.0 9.0 3.0 2.0 8.0 5.0 8.0 5.0 3.0 6.0 10.0 8.0 8.0 3.0 8.0 0.0 5.0 7.0 10.0 2.0 8.0 9.0 4.0 0.0 7.0 3.0 5.0 9.0 7.0 10.0 2.0 1.0 1.0 3.0 3.0 2.0 1.0 6.0 4.0 1.0 4.0 7.0 4.0 10.0 9.0 0.0 0.0 6.0 10.0 0.0 8.0 3.0 7.0 6.0 8.0 7.0 2.0 3.0 8.0 9.0 10.0 -408.0 8.0 
1.0 0.0 5.0 8.0 3.0 0.0 2.0 4.0 0.0 0.0 2.0 2.0 3.0 7.0 10.0 8.0 4.0 10.0 6.0 0.0 7.0 7.0 8.0 4.0 9.0 2.0 3.0 9.0 0.0 9.0 2.0 3.0 6.0 9.0 2.0 3.0 1.0 0.0 9.0 2.0 1.0 3.0 4.0 7.0 2.0 8.0 6.0 10.0 2.0 1.0 7.0 4.0 3.0 7.0 6.0 5.0 1.0 6.0 2.0 3.0 8.0 6.0 6.0 4.0 6.0 2.0 10.0 0.0 5.0 5.0 10.0 2.0 7.0 0.0 10.0 7.0 1.0 8.0 3.0 9.0 7.0 2.0 7.0 8.0 -391.0 

